Solver command line: ['C:\\Program Files\\IBM\\ILOG\\CPLEX_Studio2211\\cplex\\bin\\x64_win64\\cplex.exe']


Welcome to IBM(R) ILOG(R) CPLEX(R) Interactive Optimizer 22.1.1.0
  with Simplex, Mixed Integer & Barrier Optimizers
5725-A06 5725-A29 5724-Y48 5724-Y49 5724-Y54 5724-Y55 5655-Y21
Copyright IBM Corp. 1988, 2022.  All Rights Reserved.

Type 'help' for a list of available commands.
Type 'help' followed by a command name for more
information on commands.

CPLEX> Logfile 'cplex.log' closed.
Logfile 'C:\Users\wangy\Documents\GitHub\re_optimization\result_site_specific\tmpxm_17te9.cplex.log' open.
CPLEX> Problem 'C:\Users\wangy\Documents\GitHub\re_optimization\result_site_specific\tmp0mq8ldi0.pyomo.lp' read.
Read time = 0.23 sec. (7.29 ticks)
CPLEX> Problem name         : C:\Users\wangy\Documents\GitHub\re_optimization\result_site_specific\tmp0mq8ldi0.pyomo.lp
Objective sense      : Minimize
Variables            :   52617  [Nneg: 27764,  Free: 8786,  Binary: 7,
                                 Other: 16060]
Objective nonzeros   :      14
Linear constraints   :   73052  [Less: 39437,  Greater: 3,  Equal: 33612]
  Nonzeros           :  181267
  RHS nonzeros       :    3997

Variables            : Min LB: 0.000000         Max UB: 1.000000       
Objective nonzeros   : Min   : 1.000000         Max   : 1.000000       
Linear constraints   :
  Nonzeros           : Min   : 0.001220291      Max   : 100000.0       
  RHS nonzeros       : Min   : 0.009000000      Max   : 1000.000       
CPLEX> Version identifier: 22.1.1.0 | 2022-11-27 | 9160aff4d
Tried aggregator 3 times.
MIP Presolve eliminated 47945 rows and 28966 columns.
Aggregator did 7416 substitutions.
Reduced MIP has 17691 rows, 16235 columns, and 51347 nonzeros.
Reduced MIP has 5 binaries, 0 generals, 0 SOSs, and 0 indicators.
Presolve time = 0.14 sec. (152.68 ticks)
Found incumbent of value 218646.027244 after 0.17 sec. (177.68 ticks)
Probing time = 0.00 sec. (1.07 ticks)
Tried aggregator 1 time.
Detecting symmetries...
Reduced MIP has 17691 rows, 16235 columns, and 51347 nonzeros.
Reduced MIP has 5 binaries, 0 generals, 0 SOSs, and 0 indicators.
Presolve time = 0.03 sec. (30.31 ticks)
Probing time = 0.00 sec. (0.96 ticks)
MIP emphasis: balance optimality and feasibility.
MIP search method: dynamic search.
Parallel mode: deterministic, using up to 16 threads.
Root relaxation solution time = 0.66 sec. (580.86 ticks)

        Nodes                                         Cuts/
   Node  Left     Objective  IInf  Best Integer    Best Bound    ItCnt     Gap

*     0+    0                       218646.0272   -17706.2225           108.10%
*     0+    0                        17791.2210   -17706.2225           199.52%
      0     0    16273.9799     1    17791.2210    16273.9799       62    8.53%
*     0+    0                        17791.1960    16273.9799             8.53%
      0     0        cutoff          17791.1960                    464    0.00%
Elapsed time = 1.05 sec. (997.11 ticks, tree = 0.01 MB, solutions = 3)

Root node processing (before b&c):
  Real time             =    1.05 sec. (999.61 ticks)
Parallel b&c, 16 threads:
  Real time             =    0.00 sec. (0.00 ticks)
  Sync time (average)   =    0.00 sec.
  Wait time (average)   =    0.00 sec.
                          ------------
Total (root+branch&cut) =    1.05 sec. (999.61 ticks)

Solution pool: 3 solutions saved.

MIP - Integer optimal solution:  Objective =  1.7791196036e+04
Solution time =    1.06 sec.  Iterations = 464  Nodes = 0
Deterministic time = 999.76 ticks  (940.50 ticks/sec)

CPLEX> Incumbent solution written to file 'C:\Users\wangy\Documents\GitHub\re_optimization\result_site_specific\tmposulibxq.cplex.sol'.
CPLEX> 
